cvc5/9520.corecstrs.readable_hard.smt2
(set-info :smt-lib-version 2.6)
(set-logic QF_SLIA)
(set-info :source |
Generated by: Andrew Reynolds
Generated on: 2018-04-25
Generator: Kudzu, converted to v2.6 by CVC4
Application: Symbolic Execution of Javascript
Target solver: Kaluza
Publications: "A symbolic execution framework for JavaScript" by P. Saxena, D. Akhawe, S. Hanna, F. Mao, S. McCamant, and D. Song, 2010.
|)
(set-info :license "https://creativecommons.org/licenses/by/4.0/")
(set-info :category "industrial")
(set-info :status unknown)



(declare-fun T_1 () Bool)
(declare-fun T_2 () Bool)
(declare-fun var_0xINPUT_469239 () String)
(declare-const rest_0_1101 String)
(assert (= T_1 (= var_0xINPUT_469239 "Search")))
(assert (= T_2 (not T_1)))
(assert T_2)
(assert (= (str.split_at var_0xINPUT_469239 "-" 1) "sjg0hzk"))
(assert (= (str.split_at var_0xINPUT_469239 "-" 2) var_0xINPUT_469239))
(assert (= (str.split_rest var_0xINPUT_469239 "-" 3) rest_0_1101))
(assert (str.contains rest_0_1101 "i"))
(assert (and (>= (str.num_splits var_0xINPUT_469239 "-") 1) (<= (str.num_splits var_0xINPUT_469239 "-") 5)))
(check-sat)

(exit)
(get-model)
