cvc5/9520.corecstrs.readable_hard.txt
(define-fun T_1 () Bool false)
(define-fun T_2 () Bool true)
(define-fun var_0xINPUT_469239 () String "")
(define-fun rest_0_1101 () String "i")